664027
59,58,139,11,143,197,214,46,125,227,19,134,111,48,225,47,17,176,223,156,211,145,5,44,64,30,220,13,194,165,97,120,8,15,137,60,138,3,208,185,189,16,163,127,147,67,49,118,71,140,32,63,72,1,36,7,210,183,20,117,144,26,22,89,96,91,68,9,166,101,184,116,161,107,196,179,192,37,34,205,75,215,78,28,151,50,108,94,35,87,62,102,55,130,81,40,169,27,112,155,133,229,162,135,83,157,74,39,207,43,31,178,199,159,23,69,226,177,51,98,42,160,113,73,209,218,206,136,181,188,124,173,131,148,61,182,80,132,149,115,2,82,158,77,222,41,128,141,24,216,100,53,92,18,56,54,175,105,202,99,190,66,219,106,121,180,103,187,12,146,88,228,109,90,186,171,150,170,142,4,21,217,153,129,33,224,38,203,6,104,212,45,230,204,172,168,93,213,221,52,25,123,85,167,84,29,193,195,119,86,70,126,122,152,191,114,198,200,10,201,110,14,65,154,164,174,76,57,95,79